data;
param n := 20;
param capacity := 205;
param: V : weight valeur :=
  1 4 12
  2 6 47
  3 11 95
  4 43 40
  5 17 78
  6 14 78
  7 3 75
  8 44 21
  9 28 82
  10 26 93
  11 33 48
  12 35 57
  13 33 35
  14 3 4
  15 24 60
  16 21 49
  17 28 68
  18 11 72
  19 12 31
  20 15 4;
end;